c File: instances/22_0.25_3.col
c
c Description: Random graph of size 22 vertices and P(0.25) of edges between any two vertices.
p col 22 231
e 1 2
e 1 4
e 1 6
e 1 13
e 2 3
e 2 5
e 2 14
e 2 16
e 2 21
e 3 6
e 3 15
e 3 21
e 4 5
e 4 6
e 4 8
e 4 10
e 4 17
e 4 22
e 5 8
e 5 9
e 5 10
e 5 15
e 5 16
e 5 17
e 5 18
e 5 19
e 6 10
e 6 12
e 6 15
e 6 16
e 7 8
e 7 10
e 7 12
e 8 10
e 8 12
e 8 13
e 8 22
e 9 13
e 9 20
e 10 15
e 10 18
e 11 13
e 11 16
e 11 21
e 12 17
e 12 18
e 13 14
e 13 19
e 13 21
e 14 15
e 14 19
e 16 18
e 17 18
e 18 21
e 19 20
e 19 21
e 20 22